linear programming/gurobi/sddp/iter3_main.lp
\ LP format - for model browsing. Use MPS format to capture full model detail.
Minimize
  q_1 + theta_2
Subject To
 R0: 15 q_1 + theta_2 >= 150
 R1: - 1.5 q_1 + theta_2 >= -7.5
Bounds
 theta_2 >= -200
End
