linear programming/gurobi/sddp/iter3_main.sol
# Objective value = 1.6363636363636360e+01
q_1 9.5454545454545450e+00
theta_2 6.8181818181818166e+00
